Maximize
F 

Subject to
F - 12y72 - 9y111 - 6y80 - 9y220 - 3y85 - 12y213 - 3y167 - 9y124 - 12y300 - 6y109 - 9y156 - 9y9 - 9y270 - 6y125 - 6y228 - 12y183 - 9y47 - 9y296 - 3y234 - 6y148 - 3y222 - 12y71 - 3y144 - 12y267 - 3y39 - 9y240 - 9y21 - 9y248 - 12y298 - 6y101 - 6y225 - 12y177 = 0

x139x177x1 
<= 2
x194x124x1 + x194x39x1 + x194x240x1 + x194x177x1 
<= 2
x138x111x1 + x138x80x1 + x138x85x1 + x138x213x1 + x138x124x1 + x138x300x1 + x138x47x1 + x138x234x1 + x138x148x1 + x138x71x1 + x138x39x1 + x138x240x1 + x138x21x1 + x138x101x1 + x138x177x1 
<= 1
x243x111x1 + x243x80x1 + x243x85x1 + x243x213x1 + x243x124x1 + x243x300x1 + x243x47x1 + x243x234x1 + x243x148x1 + x243x71x1 + x243x39x1 + x243x240x1 + x243x21x1 + x243x101x1 + x243x177x1 
<= 1
x276x222x2 + x276x144x2 + x276x39x2 + x276x240x2 + x276x248x2 + x276x298x2 + x276x225x2 + x276x177x2 
<= 2
x178x177x2 
<= 1
x243x220x2 + x243x167x2 + x243x124x2 + x243x300x2 + x243x156x2 + x243x296x2 + x243x222x2 + x243x144x2 + x243x39x2 + x243x240x2 + x243x248x2 + x243x298x2 + x243x225x2 + x243x177x2 
<= 1
x5x220x2 + x5x167x2 + x5x124x2 + x5x300x2 + x5x156x2 + x5x296x2 + x5x222x2 + x5x144x2 + x5x39x2 + x5x240x2 + x5x248x2 + x5x298x2 + x5x225x2 + x5x177x2 
<= 2

x162x72x3 + x162x167x3 + x162x109x3 + x162x156x3 + x162x9x3 + x162x270x3 + x162x125x3 + x162x228x3 + x162x183x3 + x162x47x3 + x162x234x3 + x162x222x3 + x162x71x3 + x162x267x3 + x162x21x3 + x162x248x3 
<= 1
x178x71x3 
<= 1
x81x109x3 + x81x156x3 + x81x9x3 + x81x270x3 + x81x125x3 + x81x228x3 + x81x183x3 + x81x47x3 + x81x234x3 + x81x222x3 + x81x71x3 + x81x267x3 + x81x21x3 + x81x248x3 
<= 2
x138x72x3 + x138x167x3 + x138x109x3 + x138x156x3 + x138x9x3 + x138x270x3 + x138x125x3 + x138x228x3 + x138x183x3 + x138x47x3 + x138x234x3 + x138x222x3 + x138x71x3 + x138x267x3 + x138x21x3 + x138x248x3 
<= 1


x162x72x3 + x138x72x3 
- x72x0x3
- x72x167x3 - x72x125x3 - x72x222x3 - x72x71x3 - x72x248x3 
= 0

x138x111x1 + x243x111x1 
- x111x0x1
- x111x124x1 - x111x39x1 - x111x240x1 - x111x177x1 
= 0



x138x80x1 + x243x80x1 
- x80x0x1
- x80x85x1 - x80x300x1 - x80x47x1 - x80x234x1 - x80x148x1 - x80x71x1 - x80x39x1 - x80x240x1 - x80x21x1 - x80x101x1 - x80x177x1 
= 0




x243x220x2 + x5x220x2 
- x220x0x2
- x220x300x2 - x220x296x2 - x220x222x2 - x220x144x2 - x220x39x2 - x220x240x2 - x220x248x2 - x220x298x2 - x220x225x2 - x220x177x2 
= 0


x138x85x1 + x243x85x1 + x80x85x1 
- x85x0x1
- x85x300x1 - x85x148x1 - x85x39x1 - x85x240x1 - x85x21x1 - x85x101x1 - x85x177x1 
= 0



x138x213x1 + x243x213x1 
- x213x0x1
- x213x300x1 - x213x47x1 - x213x234x1 - x213x148x1 - x213x71x1 - x213x39x1 - x213x240x1 - x213x21x1 - x213x101x1 - x213x177x1 
= 0




x243x167x2 + x5x167x2 
- x167x0x2
- x167x124x2 - x167x222x2 - x167x144x2 - x167x39x2 - x167x240x2 - x167x248x2 - x167x298x2 - x167x225x2 
= 0
x162x167x3 + x138x167x3 + x72x167x3 
- x167x0x3
- x167x125x3 - x167x222x3 - x167x248x3 
= 0

x194x124x1 + x138x124x1 + x243x124x1 + x111x124x1 
- x124x0x1
- x124x39x1 - x124x240x1 
= 0
x243x124x2 + x5x124x2 + x167x124x2 
- x124x0x2
- x124x222x2 - x124x144x2 - x124x39x2 - x124x240x2 - x124x248x2 - x124x298x2 - x124x225x2 
= 0


x138x300x1 + x243x300x1 + x80x300x1 + x85x300x1 + x213x300x1 
- x300x0x1
- x300x39x1 - x300x240x1 - x300x21x1 - x300x101x1 
= 0
x243x300x2 + x5x300x2 + x220x300x2 
- x300x0x2
- x300x144x2 - x300x39x2 - x300x240x2 - x300x248x2 - x300x298x2 - x300x225x2 
= 0




x162x109x3 + x81x109x3 + x138x109x3 
- x109x0x3
- x109x9x3 - x109x270x3 - x109x228x3 - x109x183x3 - x109x47x3 - x109x234x3 - x109x267x3 - x109x21x3 
= 0


x243x156x2 + x5x156x2 
- x156x0x2
- x156x296x2 - x156x177x2 
= 0
x162x156x3 + x81x156x3 + x138x156x3 
- x156x0x3
- x156x228x3 - x156x183x3 - x156x47x3 - x156x234x3 - x156x267x3 - x156x21x3 
= 0



x162x9x3 + x81x9x3 + x138x9x3 + x109x9x3 
- x9x0x3
- x9x270x3 - x9x228x3 - x9x183x3 - x9x47x3 - x9x234x3 - x9x267x3 - x9x21x3 
= 0



x162x270x3 + x81x270x3 + x138x270x3 + x109x270x3 + x9x270x3 
- x270x0x3
- x270x228x3 - x270x183x3 - x270x47x3 - x270x234x3 - x270x267x3 - x270x21x3 
= 0



x162x125x3 + x81x125x3 + x138x125x3 + x72x125x3 + x167x125x3 
- x125x0x3
- x125x222x3 - x125x248x3 
= 0



x162x228x3 + x81x228x3 + x138x228x3 + x109x228x3 + x156x228x3 + x9x228x3 + x270x228x3 
- x228x0x3
- x228x47x3 - x228x234x3 - x228x267x3 
= 0



x162x183x3 + x81x183x3 + x138x183x3 + x109x183x3 + x156x183x3 + x9x183x3 + x270x183x3 
- x183x0x3
- x183x267x3 - x183x21x3 
= 0

x138x47x1 + x243x47x1 + x80x47x1 + x213x47x1 
- x47x0x1
- x47x148x1 - x47x177x1 
= 0

x162x47x3 + x81x47x3 + x138x47x3 + x109x47x3 + x156x47x3 + x9x47x3 + x270x47x3 + x228x47x3 
- x47x0x3
- x47x267x3 
= 0


x243x296x2 + x5x296x2 + x220x296x2 + x156x296x2 
- x296x0x2
- x296x177x2 
= 0


x138x234x1 + x243x234x1 + x80x234x1 + x213x234x1 
- x234x0x1
- x234x148x1 - x234x177x1 
= 0

x162x234x3 + x81x234x3 + x138x234x3 + x109x234x3 + x156x234x3 + x9x234x3 + x270x234x3 + x228x234x3 
- x234x0x3
- x234x267x3 
= 0

x138x148x1 + x243x148x1 + x80x148x1 + x85x148x1 + x213x148x1 + x47x148x1 + x234x148x1 
- x148x0x1
- x148x177x1 
= 0




x276x222x2 + x243x222x2 + x5x222x2 + x220x222x2 + x167x222x2 + x124x222x2 
- x222x0x2
- x222x144x2 - x222x240x2 - x222x298x2 - x222x225x2 
= 0
x162x222x3 + x81x222x3 + x138x222x3 + x72x222x3 + x167x222x3 + x125x222x3 
- x222x0x3

= 0

x138x71x1 + x243x71x1 + x80x71x1 + x213x71x1 
- x71x0x1
- x71x177x1 
= 0

x162x71x3 + x178x71x3 + x81x71x3 + x138x71x3 + x72x71x3 
- x71x0x3

= 0


x276x144x2 + x243x144x2 + x5x144x2 + x220x144x2 + x167x144x2 + x124x144x2 + x300x144x2 + x222x144x2 
- x144x0x2
- x144x240x2 - x144x298x2 - x144x225x2 
= 0




x162x267x3 + x81x267x3 + x138x267x3 + x109x267x3 + x156x267x3 + x9x267x3 + x270x267x3 + x228x267x3 + x183x267x3 + x47x267x3 + x234x267x3 
- x267x0x3

= 0

x194x39x1 + x138x39x1 + x243x39x1 + x111x39x1 + x80x39x1 + x85x39x1 + x213x39x1 + x124x39x1 + x300x39x1 
- x39x0x1

= 0
x276x39x2 + x243x39x2 + x5x39x2 + x220x39x2 + x167x39x2 + x124x39x2 + x300x39x2 
- x39x0x2

= 0


x194x240x1 + x138x240x1 + x243x240x1 + x111x240x1 + x80x240x1 + x85x240x1 + x213x240x1 + x124x240x1 + x300x240x1 
- x240x0x1

= 0
x276x240x2 + x243x240x2 + x5x240x2 + x220x240x2 + x167x240x2 + x124x240x2 + x300x240x2 + x222x240x2 + x144x240x2 
- x240x0x2
- x240x298x2 - x240x225x2 
= 0


x138x21x1 + x243x21x1 + x80x21x1 + x85x21x1 + x213x21x1 + x300x21x1 
- x21x0x1
- x21x101x1 
= 0

x162x21x3 + x81x21x3 + x138x21x3 + x109x21x3 + x156x21x3 + x9x21x3 + x270x21x3 + x183x21x3 
- x21x0x3

= 0


x276x248x2 + x243x248x2 + x5x248x2 + x220x248x2 + x167x248x2 + x124x248x2 + x300x248x2 
- x248x0x2

= 0
x162x248x3 + x81x248x3 + x138x248x3 + x72x248x3 + x167x248x3 + x125x248x3 
- x248x0x3

= 0


x276x298x2 + x243x298x2 + x5x298x2 + x220x298x2 + x167x298x2 + x124x298x2 + x300x298x2 + x222x298x2 + x144x298x2 + x240x298x2 
- x298x0x2
- x298x225x2 
= 0


x138x101x1 + x243x101x1 + x80x101x1 + x85x101x1 + x213x101x1 + x300x101x1 + x21x101x1 
- x101x0x1

= 0




x276x225x2 + x243x225x2 + x5x225x2 + x220x225x2 + x167x225x2 + x124x225x2 + x300x225x2 + x222x225x2 + x144x225x2 + x240x225x2 + x298x225x2 
- x225x0x2

= 0


x139x177x1 + x194x177x1 + x138x177x1 + x243x177x1 + x111x177x1 + x80x177x1 + x85x177x1 + x213x177x1 + x47x177x1 + x234x177x1 + x148x177x1 + x71x177x1 
- x177x0x1

= 0
x276x177x2 + x178x177x2 + x243x177x2 + x5x177x2 + x220x177x2 + x156x177x2 + x296x177x2 
- x177x0x2

= 0


2y72 - x162x72x3 - x138x72x3 = 0
2y111 - x138x111x1 - x243x111x1 = 0
2y80 - x138x80x1 - x243x80x1 = 0
2y220 - x243x220x2 - x5x220x2 = 0
2y85 - x138x85x1 - x243x85x1 - x80x85x1 = 0
2y213 - x138x213x1 - x243x213x1 = 0
1y167 - x243x167x2 - x5x167x2 = 0
1y167 - x162x167x3 - x138x167x3 - x72x167x3 = 0
1y124 - x194x124x1 - x138x124x1 - x243x124x1 - x111x124x1 = 0
1y124 - x243x124x2 - x5x124x2 - x167x124x2 = 0
1y300 - x138x300x1 - x243x300x1 - x80x300x1 - x85x300x1 - x213x300x1 = 0
1y300 - x243x300x2 - x5x300x2 - x220x300x2 = 0
2y109 - x162x109x3 - x81x109x3 - x138x109x3 = 0
1y156 - x243x156x2 - x5x156x2 = 0
1y156 - x162x156x3 - x81x156x3 - x138x156x3 = 0
2y9 - x162x9x3 - x81x9x3 - x138x9x3 - x109x9x3 = 0
2y270 - x162x270x3 - x81x270x3 - x138x270x3 - x109x270x3 - x9x270x3 = 0
2y125 - x162x125x3 - x81x125x3 - x138x125x3 - x72x125x3 - x167x125x3 = 0
2y228 - x162x228x3 - x81x228x3 - x138x228x3 - x109x228x3 - x156x228x3 - x9x228x3 - x270x228x3 = 0
2y183 - x162x183x3 - x81x183x3 - x138x183x3 - x109x183x3 - x156x183x3 - x9x183x3 - x270x183x3 = 0
1y47 - x138x47x1 - x243x47x1 - x80x47x1 - x213x47x1 = 0
1y47 - x162x47x3 - x81x47x3 - x138x47x3 - x109x47x3 - x156x47x3 - x9x47x3 - x270x47x3 - x228x47x3 = 0
2y296 - x243x296x2 - x5x296x2 - x220x296x2 - x156x296x2 = 0
1y234 - x138x234x1 - x243x234x1 - x80x234x1 - x213x234x1 = 0
1y234 - x162x234x3 - x81x234x3 - x138x234x3 - x109x234x3 - x156x234x3 - x9x234x3 - x270x234x3 - x228x234x3 = 0
2y148 - x138x148x1 - x243x148x1 - x80x148x1 - x85x148x1 - x213x148x1 - x47x148x1 - x234x148x1 = 0
1y222 - x276x222x2 - x243x222x2 - x5x222x2 - x220x222x2 - x167x222x2 - x124x222x2 = 0
1y222 - x162x222x3 - x81x222x3 - x138x222x3 - x72x222x3 - x167x222x3 - x125x222x3 = 0
1y71 - x138x71x1 - x243x71x1 - x80x71x1 - x213x71x1 = 0
1y71 - x162x71x3 - x178x71x3 - x81x71x3 - x138x71x3 - x72x71x3 = 0
2y144 - x276x144x2 - x243x144x2 - x5x144x2 - x220x144x2 - x167x144x2 - x124x144x2 - x300x144x2 - x222x144x2 = 0
2y267 - x162x267x3 - x81x267x3 - x138x267x3 - x109x267x3 - x156x267x3 - x9x267x3 - x270x267x3 - x228x267x3 - x183x267x3 - x47x267x3 - x234x267x3 = 0
1y39 - x194x39x1 - x138x39x1 - x243x39x1 - x111x39x1 - x80x39x1 - x85x39x1 - x213x39x1 - x124x39x1 - x300x39x1 = 0
1y39 - x276x39x2 - x243x39x2 - x5x39x2 - x220x39x2 - x167x39x2 - x124x39x2 - x300x39x2 = 0
1y240 - x194x240x1 - x138x240x1 - x243x240x1 - x111x240x1 - x80x240x1 - x85x240x1 - x213x240x1 - x124x240x1 - x300x240x1 = 0
1y240 - x276x240x2 - x243x240x2 - x5x240x2 - x220x240x2 - x167x240x2 - x124x240x2 - x300x240x2 - x222x240x2 - x144x240x2 = 0
1y21 - x138x21x1 - x243x21x1 - x80x21x1 - x85x21x1 - x213x21x1 - x300x21x1 = 0
1y21 - x162x21x3 - x81x21x3 - x138x21x3 - x109x21x3 - x156x21x3 - x9x21x3 - x270x21x3 - x183x21x3 = 0
1y248 - x276x248x2 - x243x248x2 - x5x248x2 - x220x248x2 - x167x248x2 - x124x248x2 - x300x248x2 = 0
1y248 - x162x248x3 - x81x248x3 - x138x248x3 - x72x248x3 - x167x248x3 - x125x248x3 = 0
2y298 - x276x298x2 - x243x298x2 - x5x298x2 - x220x298x2 - x167x298x2 - x124x298x2 - x300x298x2 - x222x298x2 - x144x298x2 - x240x298x2 = 0
2y101 - x138x101x1 - x243x101x1 - x80x101x1 - x85x101x1 - x213x101x1 - x300x101x1 - x21x101x1 = 0
2y225 - x276x225x2 - x243x225x2 - x5x225x2 - x220x225x2 - x167x225x2 - x124x225x2 - x300x225x2 - x222x225x2 - x144x225x2 - x240x225x2 - x298x225x2 = 0
1y177 - x139x177x1 - x194x177x1 - x138x177x1 - x243x177x1 - x111x177x1 - x80x177x1 - x85x177x1 - x213x177x1 - x47x177x1 - x234x177x1 - x148x177x1 - x71x177x1 = 0
1y177 - x276x177x2 - x178x177x2 - x243x177x2 - x5x177x2 - x220x177x2 - x156x177x2 - x296x177x2 = 0

s162 - s72 + 8.353350z162z72z3 <= 7.20
s162 - s167 + 8.363235z162z167z3 <= 7.20
s162 - s109 + 8.679251z162z109z3 <= 7.20
s162 - s156 + 8.703496z162z156z3 <= 7.20
s162 - s9 + 8.691971z162z9z3 <= 7.20
s162 - s270 + 8.693985z162z270z3 <= 7.20
s162 - s125 + 8.408619z162z125z3 <= 7.20
s162 - s228 + 8.696435z162z228z3 <= 7.20
s162 - s183 + 8.716648z162z183z3 <= 7.20
s162 - s47 + 8.701784z162z47z3 <= 7.20
s162 - s234 + 8.710461z162z234z3 <= 7.20
s162 - s222 + 8.413486z162z222z3 <= 7.20
s162 - s71 + 8.654499z162z71z3 <= 7.20
s162 - s267 + 8.738243z162z267z3 <= 7.20
s162 - s21 + 8.796620z162z21z3 <= 7.20
s162 - s248 + 8.568336z162z248z3 <= 7.20
s276 - s222 + 9.277780z276z222z2 <= 7.94
s276 - s144 + 9.284512z276z144z2 <= 7.94
s276 - s39 + 9.272403z276z39z2 <= 7.94
s276 - s240 + 9.291177z276z240z2 <= 7.94
s276 - s248 + 9.285946z276z248z2 <= 7.94
s276 - s298 + 9.298345z276z298z2 <= 7.94
s276 - s225 + 9.297842z276z225z2 <= 7.94
s276 - s177 + 9.207083z276z177z2 <= 7.94
s139 - s177 + 9.458401z139z177z1 <= 8.10
s194 - s124 + 8.916271z194z124z1 <= 7.79
s194 - s39 + 9.128296z194z39z1 <= 7.79
s194 - s240 + 8.978939z194z240z1 <= 7.79
s194 - s177 + 9.411609z194z177z1 <= 7.79
s178 - s71 + 9.279748z178z71z3 <= 8.14
s178 - s177 + 9.264975z178z177z2 <= 8.14
s81 - s109 + 8.939259z81z109z3 <= 7.81
s81 - s156 + 8.935696z81z156z3 <= 7.81
s81 - s9 + 8.941004z81z9z3 <= 7.81
s81 - s270 + 8.950205z81z270z3 <= 7.81
s81 - s125 + 9.178888z81z125z3 <= 7.81
s81 - s228 + 8.960340z81z228z3 <= 7.81
s81 - s183 + 8.954503z81z183z3 <= 7.81
s81 - s47 + 8.962583z81z47z3 <= 7.81
s81 - s234 + 8.959131z81z234z3 <= 7.81
s81 - s222 + 9.193703z81z222z3 <= 7.81
s81 - s71 + 9.138276z81z71z3 <= 7.81
s81 - s267 + 8.986613z81z267z3 <= 7.81
s81 - s21 + 9.048470z81z21z3 <= 7.81
s81 - s248 + 9.066189z81z248z3 <= 7.81
s138 - s72 + 6.879711z138z72z3 <= 5.40
s138 - s111 + 6.896266z138z111z1 <= 5.40
s138 - s80 + 7.186295z138z80z1 <= 5.40
s138 - s85 + 7.155125z138z85z1 <= 5.40
s138 - s213 + 7.260756z138z213z1 <= 5.40
s138 - s167 + 6.920302z138z167z3 <= 5.40
s138 - s124 + 6.976423z138z124z1 <= 5.40
s138 - s300 + 7.230455z138z300z1 <= 5.40
s138 - s109 + 7.236194z138z109z3 <= 5.40
s138 - s156 + 7.282269z138z156z3 <= 5.40
s138 - s9 + 7.254610z138z9z3 <= 5.40
s138 - s270 + 7.250566z138z270z3 <= 5.40
s138 - s125 + 7.039096z138z125z3 <= 5.40
s138 - s228 + 7.246767z138z228z3 <= 5.40
s138 - s183 + 7.286294z138z183z3 <= 5.40
s138 - s47 + 7.253282z138z47z1 <= 5.40
s138 - s47 + 7.253282z138z47z3 <= 5.40
s138 - s234 + 7.270187z138z234z1 <= 5.40
s138 - s234 + 7.270187z138z234z3 <= 5.40
s138 - s148 + 7.259799z138z148z1 <= 5.40
s138 - s222 + 7.038783z138z222z3 <= 5.40
s138 - s71 + 7.068629z138z71z1 <= 5.40
s138 - s71 + 7.068629z138z71z3 <= 5.40
s138 - s267 + 7.293790z138z267z3 <= 5.40
s138 - s39 + 7.159677z138z39z1 <= 5.40
s138 - s240 + 7.038817z138z240z1 <= 5.40
s138 - s21 + 7.414085z138z21z1 <= 5.40
s138 - s21 + 7.414085z138z21z3 <= 5.40
s138 - s248 + 7.215810z138z248z3 <= 5.40
s138 - s101 + 7.421079z138z101z1 <= 5.40
s138 - s177 + 7.141300z138z177z1 <= 5.40
s243 - s111 + 7.353417z243z111z1 <= 5.94
s243 - s80 + 7.637231z243z80z1 <= 5.94
s243 - s220 + 7.639617z243z220z2 <= 5.94
s243 - s85 + 7.605529z243z85z1 <= 5.94
s243 - s213 + 7.713823z243z213z1 <= 5.94
s243 - s167 + 7.377396z243z167z2 <= 5.94
s243 - s124 + 7.430517z243z124z1 <= 5.94
s243 - s124 + 7.430517z243z124z2 <= 5.94
s243 - s300 + 7.681080z243z300z1 <= 5.94
s243 - s300 + 7.681080z243z300z2 <= 5.94
s243 - s156 + 7.739058z243z156z2 <= 5.94
s243 - s47 + 7.713018z243z47z1 <= 5.94
s243 - s296 + 7.701928z243z296z2 <= 5.94
s243 - s234 + 7.729095z243z234z1 <= 5.94
s243 - s148 + 7.719460z243z148z1 <= 5.94
s243 - s222 + 7.491795z243z222z2 <= 5.94
s243 - s71 + 7.542875z243z71z1 <= 5.94
s243 - s144 + 7.500823z243z144z2 <= 5.94
s243 - s39 + 7.610486z243z39z1 <= 5.94
s243 - s39 + 7.610486z243z39z2 <= 5.94
s243 - s240 + 7.492399z243z240z1 <= 5.94
s243 - s240 + 7.492399z243z240z2 <= 5.94
s243 - s21 + 7.867081z243z21z1 <= 5.94
s243 - s248 + 7.666238z243z248z2 <= 5.94
s243 - s298 + 7.484252z243z298z2 <= 5.94
s243 - s101 + 7.874529z243z101z1 <= 5.94
s243 - s225 + 7.495728z243z225z2 <= 5.94
s243 - s177 + 7.611016z243z177z1 <= 5.94
s243 - s177 + 7.611016z243z177z2 <= 5.94
s5 - s220 + 7.512980z5z220z2 <= 5.76
s5 - s167 + 7.323363z5z167z2 <= 5.76
s5 - s124 + 7.363472z5z124z2 <= 5.76
s5 - s300 + 7.555124z5z300z2 <= 5.76
s5 - s156 + 7.560445z5z156z2 <= 5.76
s5 - s296 + 7.507738z5z296z2 <= 5.76
s5 - s222 + 7.417301z5z222z2 <= 5.76
s5 - s144 + 7.426700z5z144z2 <= 5.76
s5 - s39 + 7.513452z5z39z2 <= 5.76
s5 - s240 + 7.421043z5z240z2 <= 5.76
s5 - s248 + 7.559028z5z248z2 <= 5.76
s5 - s298 + 7.415676z5z298z2 <= 5.76
s5 - s225 + 7.425499z5z225z2 <= 5.76
s5 - s177 + 7.384144z5z177z2 <= 5.76
s72 - s167 + 9.752164z72z167z3 <= 8.71
s72 - s125 + 9.896786z72z125z3 <= 8.71
s72 - s222 + 9.890123z72z222z3 <= 8.71
s72 - s71 + 10.323515z72z71z3 <= 8.71
s72 - s248 + 10.107883z72z248z3 <= 8.71
s111 - s124 + 9.863334z111z124z1 <= 8.77
s111 - s39 + 10.078473z111z39z1 <= 8.77
s111 - s240 + 9.924633z111z240z1 <= 8.77
s111 - s177 + 10.396276z111z177z1 <= 8.77
s80 - s85 + 9.866667z80z85z1 <= 8.80
s80 - s300 + 9.852069z80z300z1 <= 8.80
s80 - s47 + 10.078488z80z47z1 <= 8.80
s80 - s234 + 10.070145z80z234z1 <= 8.80
s80 - s148 + 10.079842z80z148z1 <= 8.80
s80 - s71 + 10.241412z80z71z1 <= 8.80
s80 - s39 + 9.958466z80z39z1 <= 8.80
s80 - s240 + 10.092422z80z240z1 <= 8.80
s80 - s21 + 10.053860z80z21z1 <= 8.80
s80 - s101 + 10.068329z80z101z1 <= 8.80
s80 - s177 + 10.199389z80z177z1 <= 8.80
s220 - s300 + 9.912164z220z300z2 <= 8.87
s220 - s296 + 10.172655z220z296z2 <= 8.87
s220 - s222 + 10.135497z220z222z2 <= 8.87
s220 - s144 + 10.134659z220z144z2 <= 8.87
s220 - s39 + 10.010159z220z39z2 <= 8.87
s220 - s240 + 10.149126z220z240z2 <= 8.87
s220 - s248 + 9.970222z220z248z2 <= 8.87
s220 - s298 + 10.163636z220z298z2 <= 8.87
s220 - s225 + 10.153471z220z225z2 <= 8.87
s220 - s177 + 10.288781z220z177z2 <= 8.87
s85 - s300 + 9.962462z85z300z1 <= 8.88
s85 - s148 + 10.221630z85z148z1 <= 8.88
s85 - s39 + 9.975452z85z39z1 <= 8.88
s85 - s240 + 10.107059z85z240z1 <= 8.88
s85 - s21 + 10.193404z85z21z1 <= 8.88
s85 - s101 + 10.209309z85z101z1 <= 8.88
s85 - s177 + 10.324072z85z177z1 <= 8.88
s213 - s300 + 10.029204z213z300z1 <= 8.89
s213 - s47 + 10.065372z213z47z1 <= 8.89
s213 - s234 + 10.050139z213z234z1 <= 8.89
s213 - s148 + 10.064484z213z148z1 <= 8.89
s213 - s71 + 10.291387z213z71z1 <= 8.89
s213 - s39 + 10.173628z213z39z1 <= 8.89
s213 - s240 + 10.309577z213z240z1 <= 8.89
s213 - s21 + 10.043334z213z21z1 <= 8.89
s213 - s101 + 10.051246z213z101z1 <= 8.89
s213 - s177 + 10.228494z213z177z1 <= 8.89
s167 - s124 + 10.014535z167z124z2 <= 8.94
s167 - s125 + 10.088024z167z125z3 <= 8.94
s167 - s222 + 10.080158z167z222z2 <= 8.94
s167 - s222 + 10.080158z167z222z3 <= 8.94
s167 - s144 + 10.086666z167z144z2 <= 8.94
s167 - s39 + 10.230440z167z39z2 <= 8.94
s167 - s240 + 10.073500z167z240z2 <= 8.94
s167 - s248 + 10.300863z167z248z2 <= 8.94
s167 - s248 + 10.300863z167z248z3 <= 8.94
s167 - s298 + 10.060738z167z298z2 <= 8.94
s167 - s225 + 10.073997z167z225z2 <= 8.94
s124 - s222 + 10.096999z124z222z2 <= 9.03
s124 - s144 + 10.104535z124z144z2 <= 9.03
s124 - s39 + 10.245921z124z39z1 <= 9.03
s124 - s39 + 10.245921z124z39z2 <= 9.03
s124 - s240 + 10.093246z124z240z1 <= 9.03
s124 - s240 + 10.093246z124z240z2 <= 9.03
s124 - s248 + 10.316357z124z248z2 <= 9.03
s124 - s298 + 10.083748z124z298z2 <= 9.03
s124 - s225 + 10.095659z124z225z2 <= 9.03
s300 - s144 + 10.338444z300z144z2 <= 9.05
s300 - s39 + 10.201144z300z39z1 <= 9.05
s300 - s39 + 10.201144z300z39z2 <= 9.05
s300 - s240 + 10.353242z300z240z1 <= 9.05
s300 - s240 + 10.353242z300z240z2 <= 9.05
s300 - s21 + 10.284852z300z21z1 <= 9.05
s300 - s248 + 10.142857z300z248z2 <= 9.05
s300 - s298 + 10.368050z300z298z2 <= 9.05
s300 - s101 + 10.302014z300z101z1 <= 9.05
s300 - s225 + 10.356956z300z225z2 <= 9.05
s109 - s9 + 10.091082z109z9z3 <= 9.07
s109 - s270 + 10.084907z109z270z3 <= 9.07
s109 - s228 + 10.091082z109z228z3 <= 9.07
s109 - s183 + 10.124974z109z183z3 <= 9.07
s109 - s47 + 10.094037z109z47z3 <= 9.07
s109 - s234 + 10.103993z109z234z3 <= 9.07
s109 - s267 + 10.129628z109z267z3 <= 9.07
s109 - s21 + 10.316756z109z21z3 <= 9.07
s156 - s228 + 10.176012z156z228z3 <= 9.10
s156 - s183 + 10.126667z156z183z3 <= 9.10
s156 - s47 + 10.172112z156z47z3 <= 9.10
s156 - s296 + 10.185375z156z296z2 <= 9.10
s156 - s234 + 10.150772z156z234z3 <= 9.10
s156 - s267 + 10.166667z156z267z3 <= 9.10
s156 - s21 + 10.280124z156z21z3 <= 9.10
s156 - s177 + 10.359658z156z177z2 <= 9.10
s9 - s270 + 10.124907z9z270z3 <= 9.11
s9 - s228 + 10.139814z9z228z3 <= 9.11
s9 - s183 + 10.143993z9z183z3 <= 9.11
s9 - s47 + 10.137487z9z47z3 <= 9.11
s9 - s234 + 10.128856z9z234z3 <= 9.11
s9 - s267 + 10.157140z9z267z3 <= 9.11
s9 - s21 + 10.337058z9z21z3 <= 9.11
s270 - s228 + 10.154907z270z228z3 <= 9.14
s270 - s183 + 10.184722z270z183z3 <= 9.14
s270 - s47 + 10.153334z270z47z3 <= 9.14
s270 - s234 + 10.160000z270z234z3 <= 9.14
s270 - s267 + 10.184722z270z267z3 <= 9.14
s270 - s21 + 10.380833z270z21z3 <= 9.14
s125 - s222 + 10.194907z125z222z3 <= 9.18
s125 - s248 + 10.393437z125z248z3 <= 9.18
s228 - s47 + 10.186666z228z47z3 <= 9.18
s228 - s234 + 10.209814z228z234z3 <= 9.18
s228 - s267 + 10.227140z228z267z3 <= 9.18
s183 - s267 + 10.230000z183z267z3 <= 9.19
s183 - s21 + 10.387989z183z21z3 <= 9.19
s47 - s148 + 10.206667z47z148z1 <= 9.20
s47 - s267 + 10.240552z47z267z3 <= 9.20
s47 - s177 + 10.390671z47z177z1 <= 9.20
s296 - s177 + 10.376005z296z177z2 <= 9.20
s234 - s148 + 10.228856z234z148z1 <= 9.21
s234 - s267 + 10.238284z234z267z3 <= 9.21
s234 - s177 + 10.424684z234z177z1 <= 9.21
s148 - s177 + 10.426072z148z177z1 <= 9.23
s222 - s144 + 10.289428z222z144z2 <= 9.28
s222 - s240 + 10.294907z222z240z2 <= 9.28
s222 - s298 + 10.308284z222z298z2 <= 9.28
s222 - s225 + 10.301082z222z225z2 <= 9.28
s71 - s177 + 10.417686z71z177z1 <= 9.33
s144 - s240 + 10.364907z144z240z2 <= 9.35
s144 - s298 + 10.379814z144z298z2 <= 9.35
s144 - s225 + 10.368856z144z225z2 <= 9.35
s240 - s298 + 10.394907z240z298z2 <= 9.38
s240 - s225 + 10.386667z240z225z2 <= 9.38
s21 - s101 + 10.411082z21z101z1 <= 9.39
s298 - s225 + 10.413333z298z225z2 <= 9.40

x162x72x3 - 2z162z72z3 <= 0
x162x167x3 - 1z162z167z3 <= 0
x162x109x3 - 2z162z109z3 <= 0
x162x156x3 - 1z162z156z3 <= 0
x162x9x3 - 2z162z9z3 <= 0
x162x270x3 - 2z162z270z3 <= 0
x162x125x3 - 2z162z125z3 <= 0
x162x228x3 - 2z162z228z3 <= 0
x162x183x3 - 2z162z183z3 <= 0
x162x47x3 - 1z162z47z3 <= 0
x162x234x3 - 1z162z234z3 <= 0
x162x222x3 - 1z162z222z3 <= 0
x162x71x3 - 1z162z71z3 <= 0
x162x267x3 - 2z162z267z3 <= 0
x162x21x3 - 1z162z21z3 <= 0
x162x248x3 - 1z162z248z3 <= 0
x276x222x2 - 1z276z222z2 <= 0
x276x144x2 - 2z276z144z2 <= 0
x276x39x2 - 1z276z39z2 <= 0
x276x240x2 - 1z276z240z2 <= 0
x276x248x2 - 1z276z248z2 <= 0
x276x298x2 - 2z276z298z2 <= 0
x276x225x2 - 2z276z225z2 <= 0
x276x177x2 - 1z276z177z2 <= 0
x139x177x1 - 1z139z177z1 <= 0
x194x124x1 - 1z194z124z1 <= 0
x194x39x1 - 1z194z39z1 <= 0
x194x240x1 - 1z194z240z1 <= 0
x194x177x1 - 1z194z177z1 <= 0
x178x71x3 - 1z178z71z3 <= 0
x178x177x2 - 1z178z177z2 <= 0
x81x109x3 - 2z81z109z3 <= 0
x81x156x3 - 1z81z156z3 <= 0
x81x9x3 - 2z81z9z3 <= 0
x81x270x3 - 2z81z270z3 <= 0
x81x125x3 - 2z81z125z3 <= 0
x81x228x3 - 2z81z228z3 <= 0
x81x183x3 - 2z81z183z3 <= 0
x81x47x3 - 1z81z47z3 <= 0
x81x234x3 - 1z81z234z3 <= 0
x81x222x3 - 1z81z222z3 <= 0
x81x71x3 - 1z81z71z3 <= 0
x81x267x3 - 2z81z267z3 <= 0
x81x21x3 - 1z81z21z3 <= 0
x81x248x3 - 1z81z248z3 <= 0
x138x72x3 - 2z138z72z3 <= 0
x138x111x1 - 2z138z111z1 <= 0
x138x80x1 - 2z138z80z1 <= 0
x138x85x1 - 2z138z85z1 <= 0
x138x213x1 - 2z138z213z1 <= 0
x138x167x3 - 1z138z167z3 <= 0
x138x124x1 - 1z138z124z1 <= 0
x138x300x1 - 1z138z300z1 <= 0
x138x109x3 - 2z138z109z3 <= 0
x138x156x3 - 1z138z156z3 <= 0
x138x9x3 - 2z138z9z3 <= 0
x138x270x3 - 2z138z270z3 <= 0
x138x125x3 - 2z138z125z3 <= 0
x138x228x3 - 2z138z228z3 <= 0
x138x183x3 - 2z138z183z3 <= 0
x138x47x1 - 1z138z47z1 <= 0
x138x47x3 - 1z138z47z3 <= 0
x138x234x1 - 1z138z234z1 <= 0
x138x234x3 - 1z138z234z3 <= 0
x138x148x1 - 2z138z148z1 <= 0
x138x222x3 - 1z138z222z3 <= 0
x138x71x1 - 1z138z71z1 <= 0
x138x71x3 - 1z138z71z3 <= 0
x138x267x3 - 2z138z267z3 <= 0
x138x39x1 - 1z138z39z1 <= 0
x138x240x1 - 1z138z240z1 <= 0
x138x21x1 - 1z138z21z1 <= 0
x138x21x3 - 1z138z21z3 <= 0
x138x248x3 - 1z138z248z3 <= 0
x138x101x1 - 2z138z101z1 <= 0
x138x177x1 - 1z138z177z1 <= 0
x243x111x1 - 2z243z111z1 <= 0
x243x80x1 - 2z243z80z1 <= 0
x243x220x2 - 2z243z220z2 <= 0
x243x85x1 - 2z243z85z1 <= 0
x243x213x1 - 2z243z213z1 <= 0
x243x167x2 - 1z243z167z2 <= 0
x243x124x1 - 1z243z124z1 <= 0
x243x124x2 - 1z243z124z2 <= 0
x243x300x1 - 1z243z300z1 <= 0
x243x300x2 - 1z243z300z2 <= 0
x243x156x2 - 1z243z156z2 <= 0
x243x47x1 - 1z243z47z1 <= 0
x243x296x2 - 2z243z296z2 <= 0
x243x234x1 - 1z243z234z1 <= 0
x243x148x1 - 2z243z148z1 <= 0
x243x222x2 - 1z243z222z2 <= 0
x243x71x1 - 1z243z71z1 <= 0
x243x144x2 - 2z243z144z2 <= 0
x243x39x1 - 1z243z39z1 <= 0
x243x39x2 - 1z243z39z2 <= 0
x243x240x1 - 1z243z240z1 <= 0
x243x240x2 - 1z243z240z2 <= 0
x243x21x1 - 1z243z21z1 <= 0
x243x248x2 - 1z243z248z2 <= 0
x243x298x2 - 2z243z298z2 <= 0
x243x101x1 - 2z243z101z1 <= 0
x243x225x2 - 2z243z225z2 <= 0
x243x177x1 - 1z243z177z1 <= 0
x243x177x2 - 1z243z177z2 <= 0
x5x220x2 - 2z5z220z2 <= 0
x5x167x2 - 1z5z167z2 <= 0
x5x124x2 - 1z5z124z2 <= 0
x5x300x2 - 1z5z300z2 <= 0
x5x156x2 - 1z5z156z2 <= 0
x5x296x2 - 2z5z296z2 <= 0
x5x222x2 - 1z5z222z2 <= 0
x5x144x2 - 2z5z144z2 <= 0
x5x39x2 - 1z5z39z2 <= 0
x5x240x2 - 1z5z240z2 <= 0
x5x248x2 - 1z5z248z2 <= 0
x5x298x2 - 2z5z298z2 <= 0
x5x225x2 - 2z5z225z2 <= 0
x5x177x2 - 1z5z177z2 <= 0
x72x167x3 - 1z72z167z3 <= 0
x72x125x3 - 2z72z125z3 <= 0
x72x222x3 - 1z72z222z3 <= 0
x72x71x3 - 1z72z71z3 <= 0
x72x248x3 - 1z72z248z3 <= 0
x72x0x3 <= 2
x111x124x1 - 1z111z124z1 <= 0
x111x39x1 - 1z111z39z1 <= 0
x111x240x1 - 1z111z240z1 <= 0
x111x177x1 - 1z111z177z1 <= 0
x111x0x1 <= 2
x80x85x1 - 2z80z85z1 <= 0
x80x300x1 - 1z80z300z1 <= 0
x80x47x1 - 1z80z47z1 <= 0
x80x234x1 - 1z80z234z1 <= 0
x80x148x1 - 2z80z148z1 <= 0
x80x71x1 - 1z80z71z1 <= 0
x80x39x1 - 1z80z39z1 <= 0
x80x240x1 - 1z80z240z1 <= 0
x80x21x1 - 1z80z21z1 <= 0
x80x101x1 - 2z80z101z1 <= 0
x80x177x1 - 1z80z177z1 <= 0
x80x0x1 <= 2
x220x300x2 - 1z220z300z2 <= 0
x220x296x2 - 2z220z296z2 <= 0
x220x222x2 - 1z220z222z2 <= 0
x220x144x2 - 2z220z144z2 <= 0
x220x39x2 - 1z220z39z2 <= 0
x220x240x2 - 1z220z240z2 <= 0
x220x248x2 - 1z220z248z2 <= 0
x220x298x2 - 2z220z298z2 <= 0
x220x225x2 - 2z220z225z2 <= 0
x220x177x2 - 1z220z177z2 <= 0
x220x0x2 <= 2
x85x300x1 - 1z85z300z1 <= 0
x85x148x1 - 2z85z148z1 <= 0
x85x39x1 - 1z85z39z1 <= 0
x85x240x1 - 1z85z240z1 <= 0
x85x21x1 - 1z85z21z1 <= 0
x85x101x1 - 2z85z101z1 <= 0
x85x177x1 - 1z85z177z1 <= 0
x85x0x1 <= 2
x213x300x1 - 1z213z300z1 <= 0
x213x47x1 - 1z213z47z1 <= 0
x213x234x1 - 1z213z234z1 <= 0
x213x148x1 - 2z213z148z1 <= 0
x213x71x1 - 1z213z71z1 <= 0
x213x39x1 - 1z213z39z1 <= 0
x213x240x1 - 1z213z240z1 <= 0
x213x21x1 - 1z213z21z1 <= 0
x213x101x1 - 2z213z101z1 <= 0
x213x177x1 - 1z213z177z1 <= 0
x213x0x1 <= 2
x167x124x2 - 1z167z124z2 <= 0
x167x125x3 - 2z167z125z3 <= 0
x167x222x2 - 1z167z222z2 <= 0
x167x222x3 - 1z167z222z3 <= 0
x167x144x2 - 2z167z144z2 <= 0
x167x39x2 - 1z167z39z2 <= 0
x167x240x2 - 1z167z240z2 <= 0
x167x248x2 - 1z167z248z2 <= 0
x167x248x3 - 1z167z248z3 <= 0
x167x298x2 - 2z167z298z2 <= 0
x167x225x2 - 2z167z225z2 <= 0
x167x0x2 <= 1
x167x0x3 <= 1
x124x222x2 - 1z124z222z2 <= 0
x124x144x2 - 2z124z144z2 <= 0
x124x39x1 - 1z124z39z1 <= 0
x124x39x2 - 1z124z39z2 <= 0
x124x240x1 - 1z124z240z1 <= 0
x124x240x2 - 1z124z240z2 <= 0
x124x248x2 - 1z124z248z2 <= 0
x124x298x2 - 2z124z298z2 <= 0
x124x225x2 - 2z124z225z2 <= 0
x124x0x1 <= 1
x124x0x2 <= 1
x300x144x2 - 2z300z144z2 <= 0
x300x39x1 - 1z300z39z1 <= 0
x300x39x2 - 1z300z39z2 <= 0
x300x240x1 - 1z300z240z1 <= 0
x300x240x2 - 1z300z240z2 <= 0
x300x21x1 - 1z300z21z1 <= 0
x300x248x2 - 1z300z248z2 <= 0
x300x298x2 - 2z300z298z2 <= 0
x300x101x1 - 2z300z101z1 <= 0
x300x225x2 - 2z300z225z2 <= 0
x300x0x1 <= 1
x300x0x2 <= 1
x109x9x3 - 2z109z9z3 <= 0
x109x270x3 - 2z109z270z3 <= 0
x109x228x3 - 2z109z228z3 <= 0
x109x183x3 - 2z109z183z3 <= 0
x109x47x3 - 1z109z47z3 <= 0
x109x234x3 - 1z109z234z3 <= 0
x109x267x3 - 2z109z267z3 <= 0
x109x21x3 - 1z109z21z3 <= 0
x109x0x3 <= 2
x156x228x3 - 2z156z228z3 <= 0
x156x183x3 - 2z156z183z3 <= 0
x156x47x3 - 1z156z47z3 <= 0
x156x296x2 - 2z156z296z2 <= 0
x156x234x3 - 1z156z234z3 <= 0
x156x267x3 - 2z156z267z3 <= 0
x156x21x3 - 1z156z21z3 <= 0
x156x177x2 - 1z156z177z2 <= 0
x156x0x2 <= 1
x156x0x3 <= 1
x9x270x3 - 2z9z270z3 <= 0
x9x228x3 - 2z9z228z3 <= 0
x9x183x3 - 2z9z183z3 <= 0
x9x47x3 - 1z9z47z3 <= 0
x9x234x3 - 1z9z234z3 <= 0
x9x267x3 - 2z9z267z3 <= 0
x9x21x3 - 1z9z21z3 <= 0
x9x0x3 <= 2
x270x228x3 - 2z270z228z3 <= 0
x270x183x3 - 2z270z183z3 <= 0
x270x47x3 - 1z270z47z3 <= 0
x270x234x3 - 1z270z234z3 <= 0
x270x267x3 - 2z270z267z3 <= 0
x270x21x3 - 1z270z21z3 <= 0
x270x0x3 <= 2
x125x222x3 - 1z125z222z3 <= 0
x125x248x3 - 1z125z248z3 <= 0
x125x0x3 <= 2
x228x47x3 - 1z228z47z3 <= 0
x228x234x3 - 1z228z234z3 <= 0
x228x267x3 - 2z228z267z3 <= 0
x228x0x3 <= 2
x183x267x3 - 2z183z267z3 <= 0
x183x21x3 - 1z183z21z3 <= 0
x183x0x3 <= 2
x47x148x1 - 2z47z148z1 <= 0
x47x267x3 - 2z47z267z3 <= 0
x47x177x1 - 1z47z177z1 <= 0
x47x0x1 <= 1
x47x0x3 <= 1
x296x177x2 - 1z296z177z2 <= 0
x296x0x2 <= 2
x234x148x1 - 2z234z148z1 <= 0
x234x267x3 - 2z234z267z3 <= 0
x234x177x1 - 1z234z177z1 <= 0
x234x0x1 <= 1
x234x0x3 <= 1
x148x177x1 - 1z148z177z1 <= 0
x148x0x1 <= 2
x222x144x2 - 2z222z144z2 <= 0
x222x240x2 - 1z222z240z2 <= 0
x222x298x2 - 2z222z298z2 <= 0
x222x225x2 - 2z222z225z2 <= 0
x222x0x2 <= 1
x222x0x3 <= 1
x71x177x1 - 1z71z177z1 <= 0
x71x0x1 <= 1
x71x0x3 <= 1
x144x240x2 - 1z144z240z2 <= 0
x144x298x2 - 2z144z298z2 <= 0
x144x225x2 - 2z144z225z2 <= 0
x144x0x2 <= 2
x267x0x3 <= 2
x39x0x1 <= 1
x39x0x2 <= 1
x240x298x2 - 2z240z298z2 <= 0
x240x225x2 - 2z240z225z2 <= 0
x240x0x1 <= 1
x240x0x2 <= 1
x21x101x1 - 2z21z101z1 <= 0
x21x0x1 <= 1
x21x0x3 <= 1
x248x0x2 <= 1
x248x0x3 <= 1
x298x225x2 - 2z298z225z2 <= 0
x298x0x2 <= 2
x101x0x1 <= 2
x225x0x2 <= 2
x177x0x1 <= 1
x177x0x2 <= 1

Bounds
s162 = 7.196435
s276 = 7.944446
s139 = 8.102811
s194 = 7.788035
s53 = 8.346250
s172 = 8.491016
s178 = 8.138484
s81 = 7.812768
s95 = 8.641614
s142 = 8.533994
s96 = 8.666113
s138 = 5.400730
s243 = 5.940030
s5 = 5.760000
7.710000 <= s72 <= 8.710000
7.770000 <= s111 <= 8.770000
7.800000 <= s80 <= 8.800000
7.870000 <= s220 <= 8.870000
7.880000 <= s85 <= 8.880000
7.890000 <= s213 <= 8.890000
7.940000 <= s167 <= 8.940000
8.030000 <= s124 <= 9.030000
8.050000 <= s300 <= 9.050000
8.070000 <= s109 <= 9.070000
8.100000 <= s156 <= 9.100000
8.110000 <= s9 <= 9.110000
8.140000 <= s270 <= 9.140000
8.180000 <= s125 <= 9.180000
8.180000 <= s228 <= 9.180000
8.190000 <= s183 <= 9.190000
8.200000 <= s47 <= 9.200000
8.200000 <= s296 <= 9.200000
8.210000 <= s234 <= 9.210000
8.230000 <= s148 <= 9.230000
8.280000 <= s222 <= 9.280000
8.330000 <= s71 <= 9.330000
8.350000 <= s144 <= 9.350000
8.360000 <= s267 <= 9.360000
8.380000 <= s39 <= 9.380000
8.380000 <= s240 <= 9.380000
8.390000 <= s21 <= 9.390000
8.400000 <= s248 <= 9.400000
8.400000 <= s298 <= 9.400000
8.420000 <= s101 <= 9.420000
8.440000 <= s225 <= 9.440000
8.470000 <= s177 <= 9.470000

General
x162x72x3 x162x167x3 x162x109x3 x162x156x3 x162x9x3 x162x270x3 x162x125x3 x162x228x3 x162x183x3 x162x47x3 x162x234x3 x162x222x3 x162x71x3 x162x267x3 x162x21x3 x162x248x3 
x276x222x2 x276x144x2 x276x39x2 x276x240x2 x276x248x2 x276x298x2 x276x225x2 x276x177x2 
x139x177x1 
x194x124x1 x194x39x1 x194x240x1 x194x177x1 


x178x71x3 x178x177x2 
x81x109x3 x81x156x3 x81x9x3 x81x270x3 x81x125x3 x81x228x3 x81x183x3 x81x47x3 x81x234x3 x81x222x3 x81x71x3 x81x267x3 x81x21x3 x81x248x3 



x138x72x3 x138x111x1 x138x80x1 x138x85x1 x138x213x1 x138x167x3 x138x124x1 x138x300x1 x138x109x3 x138x156x3 x138x9x3 x138x270x3 x138x125x3 x138x228x3 x138x183x3 x138x47x1 x138x47x3 x138x234x1 x138x234x3 x138x148x1 x138x222x3 x138x71x1 x138x71x3 x138x267x3 x138x39x1 x138x240x1 x138x21x1 x138x21x3 x138x248x3 x138x101x1 x138x177x1 
x243x111x1 x243x80x1 x243x220x2 x243x85x1 x243x213x1 x243x167x2 x243x124x1 x243x124x2 x243x300x1 x243x300x2 x243x156x2 x243x47x1 x243x296x2 x243x234x1 x243x148x1 x243x222x2 x243x71x1 x243x144x2 x243x39x1 x243x39x2 x243x240x1 x243x240x2 x243x21x1 x243x248x2 x243x298x2 x243x101x1 x243x225x2 x243x177x1 x243x177x2 
x5x220x2 x5x167x2 x5x124x2 x5x300x2 x5x156x2 x5x296x2 x5x222x2 x5x144x2 x5x39x2 x5x240x2 x5x248x2 x5x298x2 x5x225x2 x5x177x2 
x72x167x3 x72x125x3 x72x222x3 x72x71x3 x72x248x3 x72x0x3 
x111x124x1 x111x39x1 x111x240x1 x111x177x1 x111x0x1 
x80x85x1 x80x300x1 x80x47x1 x80x234x1 x80x148x1 x80x71x1 x80x39x1 x80x240x1 x80x21x1 x80x101x1 x80x177x1 x80x0x1 
x220x300x2 x220x296x2 x220x222x2 x220x144x2 x220x39x2 x220x240x2 x220x248x2 x220x298x2 x220x225x2 x220x177x2 x220x0x2 
x85x300x1 x85x148x1 x85x39x1 x85x240x1 x85x21x1 x85x101x1 x85x177x1 x85x0x1 
x213x300x1 x213x47x1 x213x234x1 x213x148x1 x213x71x1 x213x39x1 x213x240x1 x213x21x1 x213x101x1 x213x177x1 x213x0x1 
x167x124x2 x167x125x3 x167x222x2 x167x222x3 x167x144x2 x167x39x2 x167x240x2 x167x248x2 x167x248x3 x167x298x2 x167x225x2 x167x0x2 x167x0x3 
x124x222x2 x124x144x2 x124x39x1 x124x39x2 x124x240x1 x124x240x2 x124x248x2 x124x298x2 x124x225x2 x124x0x1 x124x0x2 
x300x144x2 x300x39x1 x300x39x2 x300x240x1 x300x240x2 x300x21x1 x300x248x2 x300x298x2 x300x101x1 x300x225x2 x300x0x1 x300x0x2 
x109x9x3 x109x270x3 x109x228x3 x109x183x3 x109x47x3 x109x234x3 x109x267x3 x109x21x3 x109x0x3 
x156x228x3 x156x183x3 x156x47x3 x156x296x2 x156x234x3 x156x267x3 x156x21x3 x156x177x2 x156x0x2 x156x0x3 
x9x270x3 x9x228x3 x9x183x3 x9x47x3 x9x234x3 x9x267x3 x9x21x3 x9x0x3 
x270x228x3 x270x183x3 x270x47x3 x270x234x3 x270x267x3 x270x21x3 x270x0x3 
x125x222x3 x125x248x3 x125x0x3 
x228x47x3 x228x234x3 x228x267x3 x228x0x3 
x183x267x3 x183x21x3 x183x0x3 
x47x148x1 x47x267x3 x47x177x1 x47x0x1 x47x0x3 
x296x177x2 x296x0x2 
x234x148x1 x234x267x3 x234x177x1 x234x0x1 x234x0x3 
x148x177x1 x148x0x1 
x222x144x2 x222x240x2 x222x298x2 x222x225x2 x222x0x2 x222x0x3 
x71x177x1 x71x0x1 x71x0x3 
x144x240x2 x144x298x2 x144x225x2 x144x0x2 
x267x0x3 
x39x0x1 x39x0x2 
x240x298x2 x240x225x2 x240x0x1 x240x0x2 
x21x101x1 x21x0x1 x21x0x3 
x248x0x2 x248x0x3 
x298x225x2 x298x0x2 
x101x0x1 
x225x0x2 
x177x0x1 x177x0x2 

Binaries
y72 y111 y80 y220 y85 y213 y167 y124 y300 y109 y156 y9 y270 y125 y228 y183 y47 y296 y234 y148 y222 y71 y144 y267 y39 y240 y21 y248 y298 y101 y225 y177 
z162z72z3 z162z167z3 z162z109z3 z162z156z3 z162z9z3 z162z270z3 z162z125z3 z162z228z3 z162z183z3 z162z47z3 z162z234z3 z162z222z3 z162z71z3 z162z267z3 z162z21z3 z162z248z3 
z276z222z2 z276z144z2 z276z39z2 z276z240z2 z276z248z2 z276z298z2 z276z225z2 z276z177z2 
z139z177z1 
z194z124z1 z194z39z1 z194z240z1 z194z177z1 


z178z71z3 z178z177z2 
z81z109z3 z81z156z3 z81z9z3 z81z270z3 z81z125z3 z81z228z3 z81z183z3 z81z47z3 z81z234z3 z81z222z3 z81z71z3 z81z267z3 z81z21z3 z81z248z3 



z138z72z3 z138z111z1 z138z80z1 z138z85z1 z138z213z1 z138z167z3 z138z124z1 z138z300z1 z138z109z3 z138z156z3 z138z9z3 z138z270z3 z138z125z3 z138z228z3 z138z183z3 z138z47z1 z138z47z3 z138z234z1 z138z234z3 z138z148z1 z138z222z3 z138z71z1 z138z71z3 z138z267z3 z138z39z1 z138z240z1 z138z21z1 z138z21z3 z138z248z3 z138z101z1 z138z177z1 
z243z111z1 z243z80z1 z243z220z2 z243z85z1 z243z213z1 z243z167z2 z243z124z1 z243z124z2 z243z300z1 z243z300z2 z243z156z2 z243z47z1 z243z296z2 z243z234z1 z243z148z1 z243z222z2 z243z71z1 z243z144z2 z243z39z1 z243z39z2 z243z240z1 z243z240z2 z243z21z1 z243z248z2 z243z298z2 z243z101z1 z243z225z2 z243z177z1 z243z177z2 
z5z220z2 z5z167z2 z5z124z2 z5z300z2 z5z156z2 z5z296z2 z5z222z2 z5z144z2 z5z39z2 z5z240z2 z5z248z2 z5z298z2 z5z225z2 z5z177z2 
z72z167z3 z72z125z3 z72z222z3 z72z71z3 z72z248z3 
z111z124z1 z111z39z1 z111z240z1 z111z177z1 
z80z85z1 z80z300z1 z80z47z1 z80z234z1 z80z148z1 z80z71z1 z80z39z1 z80z240z1 z80z21z1 z80z101z1 z80z177z1 
z220z300z2 z220z296z2 z220z222z2 z220z144z2 z220z39z2 z220z240z2 z220z248z2 z220z298z2 z220z225z2 z220z177z2 
z85z300z1 z85z148z1 z85z39z1 z85z240z1 z85z21z1 z85z101z1 z85z177z1 
z213z300z1 z213z47z1 z213z234z1 z213z148z1 z213z71z1 z213z39z1 z213z240z1 z213z21z1 z213z101z1 z213z177z1 
z167z124z2 z167z125z3 z167z222z2 z167z222z3 z167z144z2 z167z39z2 z167z240z2 z167z248z2 z167z248z3 z167z298z2 z167z225z2 
z124z222z2 z124z144z2 z124z39z1 z124z39z2 z124z240z1 z124z240z2 z124z248z2 z124z298z2 z124z225z2 
z300z144z2 z300z39z1 z300z39z2 z300z240z1 z300z240z2 z300z21z1 z300z248z2 z300z298z2 z300z101z1 z300z225z2 
z109z9z3 z109z270z3 z109z228z3 z109z183z3 z109z47z3 z109z234z3 z109z267z3 z109z21z3 
z156z228z3 z156z183z3 z156z47z3 z156z296z2 z156z234z3 z156z267z3 z156z21z3 z156z177z2 
z9z270z3 z9z228z3 z9z183z3 z9z47z3 z9z234z3 z9z267z3 z9z21z3 
z270z228z3 z270z183z3 z270z47z3 z270z234z3 z270z267z3 z270z21z3 
z125z222z3 z125z248z3 
z228z47z3 z228z234z3 z228z267z3 
z183z267z3 z183z21z3 
z47z148z1 z47z267z3 z47z177z1 
z296z177z2 
z234z148z1 z234z267z3 z234z177z1 
z148z177z1 
z222z144z2 z222z240z2 z222z298z2 z222z225z2 
z71z177z1 
z144z240z2 z144z298z2 z144z225z2 


z240z298z2 z240z225z2 
z21z101z1 

z298z225z2 




End